TP1/dyckhoff.lp
min: 11 m11 + 10 m10 + 7 m7;

/* Standardize optimizations of max{0, ...} */
m11 >= 1 y11_6 + 1 y11_7 + 1 y11_9;
m10 >= 1 y10_5 + 1 y10_6 + 1 y10_8;
m7 >= -1 y11_7 + -1 y9_7 + 1 y7_5 + 1 y7_4;

/* Balance restrictions */
l2: 1 y11_9 + 1 y10_8 + 1 y9_7 + 1 y8_6 + 1 y7_5 + 1 y6_4 + 1 y5_3 + 2 y4_2 + 1 y3_2 >= 13;
l3: 1 y8_5 + 1 y7_4 + 1 y5_3 + -1 y3_2 >= 0;
l4: 1 y11_7 + 1 y10_6 + 1 y9_5 + 2 y8_4 + 1 y7_4 + 1 y6_4 + 1 y5_4 + -1 y4_2 >= 9;
l5: 1 y11_6 + 2 y10_5 + 1 y9_5 + 1 y8_5 + 1 y7_5 + 1 y6_5 + -1 y5_4 + -1 y5_3 >= 5;
l6: 1 y11_6 + 1 y10_6 + 1 y8_6 + -1 y6_5 + -1 y6_4 >= 0;
l8: 1 y10_8 + -1 y8_5 + -1 y8_4 + -1 y8_6 >= 0;
l9: 1 y11_9 + -1 y9_5 + -1 y9_7 >= 0;

/* Container upper bounds */
c10: 1 y10_5 + 1 y10_6 + 1 y10_8 <= 5;
c7: -1 y11_7 + -1 y9_7 + 1 y7_5 + 1 y7_4 <= 5;

int y8_4, y8_6, y10_6, y6_5, y6_4, y10_5, y10_8, y7_4, y4_2, y5_4, y11_7, y7_5, y8_5, y5_3, y11_9, y11_6, y3_2, y9_5, y9_7;
